# to restart, use the next 3 lines
#memory 550 mb
#restart input
#task dft optimize

title "MOL"  
echo
geometry units angstrom
 load data-in.xyz 
end
basis
 H library 6-31++G**
 C library 6-31++G**
 O library 6-31++G**
 N library 6-31++G**
 S library 6-31++G**
end
dft
 iterations 400
 xc pbe96
 disp vdw 3
end
##cosmo
##dielec 10
##end 

driver
xyz data
maxiter 80
end

task dft optimize 
